n = 90;
costtab =
  [|1, 49, 90, -372,
   |1, 1, 1, 0,
   |2, 2, 2, 0,
   |3, 31, 75, -276,
   |3, 31, 86, -289,
   |3, 75, 31, -248,
   |3, 75, 86, -269,
   |3, 86, 31, -468,
   |3, 86, 75, -477,
   |3, 3, 3, 0,
   |4, 15, 40, -645,
   |4, 15, 73, -647,
   |4, 15, 85, -671,
   |4, 40, 15, -253,
   |4, 40, 73, -271,
   |4, 40, 85, -239,
   |4, 73, 15, -466,
   |4, 73, 40, -482,
   |4, 73, 85, -477,
   |4, 85, 15, -279,
   |4, 85, 40, -240,
   |4, 85, 73, -266,
   |4, 4, 4, 0,
   |5, 38, 50, -287,
   |5, 50, 38, -350,
   |5, 5, 5, 0,
   |6, 90, 16, -272,
   |6, 6, 6, 0,
   |7, 26, 43, -698,
   |7, 26, 59, -700,
   |7, 26, 65, -682,
   |7, 43, 26, -412,
   |7, 43, 59, -410,
   |7, 43, 65, -408,
   |7, 59, 26, -779,
   |7, 59, 43, -775,
   |7, 59, 65, -765,
   |7, 65, 26, -481,
   |7, 65, 43, -493,
   |7, 65, 59, -485,
   |7, 7, 7, 0,
   |8, 38, 46, -478,
   |8, 46, 38, -396,
   |8, 8, 8, 0,
   |9, 12, 33, -865,
   |9, 12, 52, -856,
   |9, 12, 54, -860,
   |9, 12, 84, -841,
   |9, 33, 12, -1231,
   |9, 33, 52, -1228,
   |9, 33, 54, -1232,
   |9, 33, 84, -1213,
   |9, 52, 12, -662,
   |9, 52, 33, -670,
   |9, 52, 54, -676,
   |9, 52, 84, -672,
   |9, 54, 12, -367,
   |9, 54, 33, -374,
   |9, 54, 52, -377,
   |9, 54, 84, -368,
   |9, 84, 12, -520,
   |9, 84, 33, -527,
   |9, 84, 52, -545,
   |9, 84, 54, -541,
   |9, 9, 9, 0,
   |10, 18, 73, -531,
   |10, 18, 86, -509,
   |10, 73, 18, -760,
   |10, 73, 86, -737,
   |10, 86, 18, -323,
   |10, 86, 73, -322,
   |10, 10, 10, 0,
   |11, 16, 20, -1052,
   |11, 16, 44, -1047,
   |11, 16, 83, -1071,
   |11, 20, 16, -581,
   |11, 20, 44, -602,
   |11, 20, 83, -576,
   |11, 44, 16, -266,
   |11, 44, 20, -292,
   |11, 44, 83, -265,
   |11, 83, 16, -229,
   |11, 83, 20, -206,
   |11, 83, 44, -204,
   |11, 11, 11, 0,
   |12, 9, 30, -869,
   |12, 9, 42, -859,
   |12, 9, 47, -855,
   |12, 9, 71, -855,
   |12, 9, 78, -854,
   |12, 9, 89, -866,
   |12, 30, 9, -1341,
   |12, 30, 42, -1333,
   |12, 30, 47, -1319,
   |12, 30, 71, -1320,
   |12, 30, 78, -1325,
   |12, 30, 89, -1339,
   |12, 42, 9, -430,
   |12, 42, 30, -433,
   |12, 42, 47, -423,
   |12, 42, 71, -427,
   |12, 42, 78, -439,
   |12, 42, 89, -440,
   |12, 47, 9, -419,
   |12, 47, 30, -411,
   |12, 47, 42, -415,
   |12, 47, 71, -434,
   |12, 47, 78, -426,
   |12, 47, 89, -416,
   |12, 71, 9, -576,
   |12, 71, 30, -569,
   |12, 71, 42, -577,
   |12, 71, 47, -591,
   |12, 71, 78, -586,
   |12, 71, 89, -577,
   |12, 78, 9, -403,
   |12, 78, 30, -403,
   |12, 78, 42, -417,
   |12, 78, 47, -411,
   |12, 78, 71, -414,
   |12, 78, 89, -414,
   |12, 89, 9, -499,
   |12, 89, 30, -500,
   |12, 89, 42, -501,
   |12, 89, 47, -485,
   |12, 89, 71, -489,
   |12, 89, 78, -497,
   |12, 12, 12, 0,
   |13, 30, 67, -1035,
   |13, 30, 81, -1038,
   |13, 30, 84, -1051,
   |13, 67, 30, -607,
   |13, 67, 81, -625,
   |13, 67, 84, -613,
   |13, 81, 30, -755,
   |13, 81, 67, -769,
   |13, 81, 84, -760,
   |13, 84, 30, -1216,
   |13, 84, 67, -1205,
   |13, 84, 81, -1208,
   |13, 13, 13, 0,
   |14, 14, 14, 0,
   |15, 4, 17, -665,
   |15, 4, 18, -673,
   |15, 4, 27, -672,
   |15, 4, 73, -673,
   |15, 4, 82, -655,
   |15, 4, 85, -673,
   |15, 17, 4, -1234,
   |15, 17, 18, -1235,
   |15, 17, 27, -1240,
   |15, 17, 73, -1238,
   |15, 17, 82, -1241,
   |15, 17, 85, -1238,
   |15, 18, 4, -997,
   |15, 18, 17, -990,
   |15, 18, 27, -996,
   |15, 18, 73, -997,
   |15, 18, 82, -983,
   |15, 18, 85, -996,
   |15, 27, 4, -912,
   |15, 27, 17, -910,
   |15, 27, 18, -912,
   |15, 27, 73, -913,
   |15, 27, 82, -903,
   |15, 27, 85, -913,
   |15, 73, 4, -1003,
   |15, 73, 17, -999,
   |15, 73, 18, -1004,
   |15, 73, 27, -1004,
   |15, 73, 82, -992,
   |15, 73, 85, -1004,
   |15, 82, 4, -559,
   |15, 82, 17, -575,
   |15, 82, 18, -563,
   |15, 82, 27, -567,
   |15, 82, 73, -566,
   |15, 82, 85, -563,
   |15, 85, 4, -526,
   |15, 85, 17, -521,
   |15, 85, 18, -525,
   |15, 85, 27, -526,
   |15, 85, 73, -526,
   |15, 85, 82, -512,
   |15, 15, 15, 0,
   |16, 6, 11, -610,
   |16, 6, 24, -608,
   |16, 11, 6, -1073,
   |16, 11, 24, -1072,
   |16, 24, 6, -417,
   |16, 24, 11, -417,
   |16, 90, 6, -402,
   |16, 90, 11, -402,
   |16, 90, 24, -401,
   |16, 16, 16, 0,
   |17, 15, 29, -1243,
   |17, 15, 37, -1237,
   |17, 15, 82, -1242,
   |17, 29, 15, -611,
   |17, 29, 37, -603,
   |17, 29, 82, -609,
   |17, 37, 15, -562,
   |17, 37, 29, -561,
   |17, 37, 82, -565,
   |17, 82, 15, -870,
   |17, 82, 29, -869,
   |17, 82, 37, -868,
   |17, 17, 17, 0,
   |18, 10, 15, -520,
   |18, 10, 27, -499,
   |18, 10, 40, -527,
   |18, 10, 51, -506,
   |18, 10, 73, -491,
   |18, 15, 10, -986,
   |18, 15, 27, -989,
   |18, 15, 40, -992,
   |18, 15, 51, -961,
   |18, 15, 73, -984,
   |18, 27, 10, -462,
   |18, 27, 15, -487,
   |18, 27, 40, -479,
   |18, 27, 51, -477,
   |18, 27, 73, -494,
   |18, 40, 10, -354,
   |18, 40, 15, -353,
   |18, 40, 27, -342,
   |18, 40, 51, -317,
   |18, 40, 73, -336,
   |18, 51, 10, -365,
   |18, 51, 15, -354,
   |18, 51, 27, -373,
   |18, 51, 40, -349,
   |18, 51, 73, -379,
   |18, 73, 10, -251,
   |18, 73, 15, -278,
   |18, 73, 27, -290,
   |18, 73, 40, -269,
   |18, 73, 51, -279,
   |18, 18, 18, 0,
   |19, 28, 36, -581,
   |19, 28, 88, -575,
   |19, 36, 28, -503,
   |19, 36, 88, -496,
   |19, 88, 28, -184,
   |19, 88, 36, -183,
   |19, 19, 19, 0,
   |20, 11, 44, -602,
   |20, 11, 53, -589,
   |20, 11, 77, -588,
   |20, 44, 11, -373,
   |20, 44, 53, -357,
   |20, 44, 77, -355,
   |20, 53, 11, -610,
   |20, 53, 44, -607,
   |20, 53, 77, -621,
   |20, 77, 11, -528,
   |20, 77, 44, -524,
   |20, 77, 53, -539,
   |20, 20, 20, 0,
   |21, 21, 21, 0,
   |22, 32, 49, -309,
   |22, 32, 60, -299,
   |22, 49, 32, -532,
   |22, 49, 60, -537,
   |22, 60, 32, -382,
   |22, 60, 49, -398,
   |22, 22, 22, 0,
   |23, 40, 75, -725,
   |23, 40, 86, -739,
   |23, 75, 40, -247,
   |23, 75, 86, -247,
   |23, 86, 40, -218,
   |23, 86, 75, -203,
   |23, 23, 23, 0,
   |24, 16, 62, -404,
   |24, 16, 65, -412,
   |24, 16, 76, -401,
   |24, 62, 16, -298,
   |24, 62, 65, -308,
   |24, 62, 76, -308,
   |24, 65, 16, -403,
   |24, 65, 62, -405,
   |24, 65, 76, -407,
   |24, 76, 16, -742,
   |24, 76, 62, -754,
   |24, 76, 65, -756,
   |24, 90, 16, -227,
   |24, 90, 62, -219,
   |24, 90, 65, -213,
   |24, 90, 76, -200,
   |24, 24, 24, 0,
   |25, 30, 47, -1387,
   |25, 30, 54, -1411,
   |25, 30, 60, -1394,
   |25, 30, 71, -1390,
   |25, 47, 30, -254,
   |25, 47, 54, -264,
   |25, 47, 60, -279,
   |25, 47, 71, -280,
   |25, 54, 30, -806,
   |25, 54, 47, -792,
   |25, 54, 60, -795,
   |25, 54, 71, -796,
   |25, 60, 30, -824,
   |25, 60, 47, -841,
   |25, 60, 54, -829,
   |25, 60, 71, -840,
   |25, 71, 30, -436,
   |25, 71, 47, -458,
   |25, 71, 54, -446,
   |25, 71, 60, -457,
   |25, 25, 25, 0,
   |26, 7, 21, -699,
   |26, 7, 59, -688,
   |26, 7, 68, -700,
   |26, 7, 80, -693,
   |26, 21, 7, -762,
   |26, 21, 59, -756,
   |26, 21, 68, -762,
   |26, 21, 80, -753,
   |26, 59, 7, -393,
   |26, 59, 21, -398,
   |26, 59, 68, -401,
   |26, 59, 80, -402,
   |26, 68, 7, -719,
   |26, 68, 21, -719,
   |26, 68, 59, -716,
   |26, 68, 80, -717,
   |26, 80, 7, -469,
   |26, 80, 21, -466,
   |26, 80, 59, -473,
   |26, 80, 68, -474,
   |26, 26, 26, 0,
   |27, 15, 18, -900,
   |27, 15, 33, -913,
   |27, 15, 45, -907,
   |27, 15, 73, -894,
   |27, 15, 85, -913,
   |27, 18, 15, -481,
   |27, 18, 33, -484,
   |27, 18, 45, -477,
   |27, 18, 73, -494,
   |27, 18, 85, -482,
   |27, 33, 15, -866,
   |27, 33, 18, -858,
   |27, 33, 45, -864,
   |27, 33, 73, -853,
   |27, 33, 85, -865,
   |27, 45, 15, -655,
   |27, 45, 18, -643,
   |27, 45, 33, -657,
   |27, 45, 73, -641,
   |27, 45, 85, -651,
   |27, 73, 15, -262,
   |27, 73, 18, -281,
   |27, 73, 33, -267,
   |27, 73, 45, -262,
   |27, 73, 85, -263,
   |27, 85, 15, -469,
   |27, 85, 18, -457,
   |27, 85, 33, -466,
   |27, 85, 45, -459,
   |27, 85, 73, -450,
   |27, 27, 27, 0,
   |28, 14, 19, -508,
   |28, 19, 14, -592,
   |28, 28, 28, 0,
   |29, 17, 50, -577,
   |29, 17, 82, -591,
   |29, 50, 17, -666,
   |29, 50, 82, -696,
   |29, 82, 17, -495,
   |29, 82, 50, -511,
   |29, 29, 29, 0,
   |30, 12, 13, -1341,
   |30, 12, 25, -1342,
   |30, 12, 42, -1342,
   |30, 12, 47, -1342,
   |30, 12, 67, -1340,
   |30, 12, 71, -1341,
   |30, 12, 81, -1339,
   |30, 13, 12, -1051,
   |30, 13, 25, -1050,
   |30, 13, 42, -1048,
   |30, 13, 47, -1050,
   |30, 13, 67, -1051,
   |30, 13, 71, -1049,
   |30, 13, 81, -1050,
   |30, 25, 12, -1412,
   |30, 25, 13, -1411,
   |30, 25, 42, -1411,
   |30, 25, 47, -1413,
   |30, 25, 67, -1412,
   |30, 25, 71, -1412,
   |30, 25, 81, -1411,
   |30, 42, 12, -1259,
   |30, 42, 13, -1256,
   |30, 42, 25, -1258,
   |30, 42, 47, -1259,
   |30, 42, 67, -1254,
   |30, 42, 71, -1258,
   |30, 42, 81, -1254,
   |30, 47, 12, -1550,
   |30, 47, 13, -1548,
   |30, 47, 25, -1551,
   |30, 47, 42, -1550,
   |30, 47, 67, -1549,
   |30, 47, 71, -1551,
   |30, 47, 81, -1549,
   |30, 67, 12, -1278,
   |30, 67, 13, -1279,
   |30, 67, 25, -1280,
   |30, 67, 42, -1276,
   |30, 67, 47, -1279,
   |30, 67, 71, -1278,
   |30, 67, 81, -1281,
   |30, 71, 12, -1620,
   |30, 71, 13, -1617,
   |30, 71, 25, -1620,
   |30, 71, 42, -1620,
   |30, 71, 47, -1621,
   |30, 71, 67, -1618,
   |30, 71, 81, -1618,
   |30, 81, 12, -1277,
   |30, 81, 13, -1278,
   |30, 81, 25, -1279,
   |30, 81, 42, -1275,
   |30, 81, 47, -1278,
   |30, 81, 67, -1280,
   |30, 81, 71, -1278,
   |30, 30, 30, 0,
   |31, 3, 55, -283,
   |31, 3, 88, -295,
   |31, 55, 3, -859,
   |31, 55, 88, -870,
   |31, 88, 3, -330,
   |31, 88, 55, -330,
   |31, 31, 31, 0,
   |32, 22, 47, -312,
   |32, 22, 78, -315,
   |32, 47, 22, -698,
   |32, 47, 78, -708,
   |32, 78, 22, -583,
   |32, 78, 47, -590,
   |32, 32, 32, 0,
   |33, 9, 27, -1229,
   |33, 9, 45, -1231,
   |33, 9, 54, -1235,
   |33, 9, 84, -1235,
   |33, 27, 9, -861,
   |33, 27, 45, -863,
   |33, 27, 54, -864,
   |33, 27, 84, -865,
   |33, 45, 9, -598,
   |33, 45, 27, -598,
   |33, 45, 54, -599,
   |33, 45, 84, -599,
   |33, 54, 9, -1031,
   |33, 54, 27, -1027,
   |33, 54, 45, -1028,
   |33, 54, 84, -1031,
   |33, 84, 9, -1516,
   |33, 84, 27, -1514,
   |33, 84, 45, -1514,
   |33, 84, 54, -1517,
   |33, 33, 33, 0,
   |34, 43, 48, -767,
   |34, 43, 62, -780,
   |34, 43, 65, -780,
   |34, 43, 77, -758,
   |34, 43, 83, -766,
   |34, 48, 43, -606,
   |34, 48, 62, -594,
   |34, 48, 65, -596,
   |34, 48, 77, -609,
   |34, 48, 83, -615,
   |34, 62, 43, -376,
   |34, 62, 48, -352,
   |34, 62, 65, -379,
   |34, 62, 77, -362,
   |34, 62, 83, -349,
   |34, 65, 43, -641,
   |34, 65, 48, -619,
   |34, 65, 62, -644,
   |34, 65, 77, -628,
   |34, 65, 83, -615,
   |34, 77, 43, -542,
   |34, 77, 48, -554,
   |34, 77, 62, -549,
   |34, 77, 65, -550,
   |34, 77, 83, -537,
   |34, 83, 43, -391,
   |34, 83, 48, -401,
   |34, 83, 62, -378,
   |34, 83, 65, -379,
   |34, 83, 77, -379,
   |34, 34, 34, 0,
   |35, 35, 35, 0,
   |36, 19, 59, -505,
   |36, 19, 68, -480,
   |36, 19, 69, -497,
   |36, 19, 74, -504,
   |36, 19, 81, -501,
   |36, 59, 19, -624,
   |36, 59, 68, -627,
   |36, 59, 69, -635,
   |36, 59, 74, -636,
   |36, 59, 81, -629,
   |36, 68, 19, -309,
   |36, 68, 59, -336,
   |36, 68, 69, -342,
   |36, 68, 74, -337,
   |36, 68, 81, -336,
   |36, 69, 19, -956,
   |36, 69, 59, -974,
   |36, 69, 68, -972,
   |36, 69, 74, -974,
   |36, 69, 81, -967,
   |36, 74, 19, -668,
   |36, 74, 59, -680,
   |36, 74, 68, -673,
   |36, 74, 69, -679,
   |36, 74, 81, -677,
   |36, 81, 19, -748,
   |36, 81, 59, -756,
   |36, 81, 68, -754,
   |36, 81, 69, -755,
   |36, 81, 74, -759,
   |36, 36, 36, 0,
   |37, 17, 52, -563,
   |37, 17, 60, -549,
   |37, 17, 71, -539,
   |37, 52, 17, -819,
   |37, 52, 60, -789,
   |37, 52, 71, -808,
   |37, 60, 17, -345,
   |37, 60, 52, -329,
   |37, 60, 71, -354,
   |37, 71, 17, -481,
   |37, 71, 52, -494,
   |37, 71, 60, -500,
   |37, 37, 37, 0,
   |38, 5, 8, -301,
   |38, 5, 46, -288,
   |38, 5, 50, -327,
   |38, 8, 5, -466,
   |38, 8, 46, -490,
   |38, 8, 50, -462,
   |38, 46, 5, -583,
   |38, 46, 8, -618,
   |38, 46, 50, -581,
   |38, 50, 5, -655,
   |38, 50, 8, -624,
   |38, 50, 46, -615,
   |38, 38, 38, 0,
   |39, 52, 57, -313,
   |39, 52, 61, -315,
   |39, 52, 71, -321,
   |39, 52, 81, -314,
   |39, 57, 52, -237,
   |39, 57, 61, -251,
   |39, 57, 71, -237,
   |39, 57, 81, -248,
   |39, 61, 52, -528,
   |39, 61, 57, -541,
   |39, 61, 71, -527,
   |39, 61, 81, -537,
   |39, 71, 52, -1074,
   |39, 71, 57, -1067,
   |39, 71, 61, -1067,
   |39, 71, 81, -1076,
   |39, 81, 52, -1124,
   |39, 81, 57, -1135,
   |39, 81, 61, -1135,
   |39, 81, 71, -1134,
   |39, 39, 39, 0,
   |40, 4, 18, -264,
   |40, 4, 23, -251,
   |40, 4, 51, -261,
   |40, 4, 73, -272,
   |40, 4, 79, -259,
   |40, 4, 86, -255,
   |40, 18, 4, -341,
   |40, 18, 23, -345,
   |40, 18, 51, -358,
   |40, 18, 73, -356,
   |40, 18, 79, -354,
   |40, 18, 86, -343,
   |40, 23, 4, -711,
   |40, 23, 18, -729,
   |40, 23, 51, -729,
   |40, 23, 73, -719,
   |40, 23, 79, -739,
   |40, 23, 86, -742,
   |40, 51, 4, -668,
   |40, 51, 18, -688,
   |40, 51, 23, -676,
   |40, 51, 73, -686,
   |40, 51, 79, -683,
   |40, 51, 86, -673,
   |40, 73, 4, -495,
   |40, 73, 18, -503,
   |40, 73, 23, -482,
   |40, 73, 51, -502,
   |40, 73, 79, -495,
   |40, 73, 86, -481,
   |40, 79, 4, -722,
   |40, 79, 18, -740,
   |40, 79, 23, -742,
   |40, 79, 51, -740,
   |40, 79, 73, -735,
   |40, 79, 86, -741,
   |40, 86, 4, -589,
   |40, 86, 18, -601,
   |40, 86, 23, -616,
   |40, 86, 51, -601,
   |40, 86, 73, -592,
   |40, 86, 79, -612,
   |40, 40, 40, 0,
   |41, 53, 76, -759,
   |41, 53, 77, -761,
   |41, 53, 80, -753,
   |41, 76, 53, -946,
   |41, 76, 77, -944,
   |41, 76, 80, -945,
   |41, 77, 53, -1085,
   |41, 77, 76, -1082,
   |41, 77, 80, -1075,
   |41, 80, 53, -700,
   |41, 80, 76, -706,
   |41, 80, 77, -698,
   |41, 41, 41, 0,
   |42, 12, 30, -426,
   |42, 12, 78, -433,
   |42, 12, 89, -428,
   |42, 30, 12, -1244,
   |42, 30, 78, -1229,
   |42, 30, 89, -1258,
   |42, 78, 12, -292,
   |42, 78, 30, -269,
   |42, 78, 89, -278,
   |42, 89, 12, -278,
   |42, 89, 30, -291,
   |42, 89, 78, -271,
   |42, 42, 42, 0,
   |43, 7, 34, -393,
   |43, 7, 62, -401,
   |43, 7, 65, -408,
   |43, 34, 7, -760,
   |43, 34, 62, -782,
   |43, 34, 65, -777,
   |43, 62, 7, -560,
   |43, 62, 34, -574,
   |43, 62, 65, -573,
   |43, 65, 7, -490,
   |43, 65, 34, -492,
   |43, 65, 62, -496,
   |43, 43, 43, 0,
   |44, 11, 20, -253,
   |44, 11, 72, -282,
   |44, 20, 11, -334,
   |44, 20, 72, -359,
   |44, 72, 11, -637,
   |44, 72, 20, -634,
   |44, 44, 44, 0,
   |45, 27, 33, -646,
   |45, 27, 47, -630,
   |45, 27, 82, -637,
   |45, 33, 27, -588,
   |45, 33, 47, -595,
   |45, 33, 82, -597,
   |45, 47, 27, -549,
   |45, 47, 33, -573,
   |45, 47, 82, -569,
   |45, 82, 27, -455,
   |45, 82, 33, -474,
   |45, 82, 47, -469,
   |45, 45, 45, 0,
   |46, 8, 38, -406,
   |46, 8, 49, -400,
   |46, 38, 8, -616,
   |46, 38, 49, -596,
   |46, 49, 8, -456,
   |46, 49, 38, -441,
   |46, 46, 46, 0,
   |47, 12, 25, -429,
   |47, 12, 30, -430,
   |47, 12, 32, -426,
   |47, 12, 45, -414,
   |47, 12, 71, -404,
   |47, 12, 78, -429,
   |47, 12, 89, -431,
   |47, 25, 12, -274,
   |47, 25, 30, -276,
   |47, 25, 32, -257,
   |47, 25, 45, -255,
   |47, 25, 71, -245,
   |47, 25, 78, -261,
   |47, 25, 89, -270,
   |47, 30, 12, -1546,
   |47, 30, 25, -1546,
   |47, 30, 32, -1528,
   |47, 30, 45, -1540,
   |47, 30, 71, -1530,
   |47, 30, 78, -1542,
   |47, 30, 89, -1549,
   |47, 32, 12, -703,
   |47, 32, 25, -688,
   |47, 32, 30, -689,
   |47, 32, 45, -692,
   |47, 32, 71, -694,
   |47, 32, 78, -706,
   |47, 32, 89, -697,
   |47, 45, 12, -559,
   |47, 45, 25, -555,
   |47, 45, 30, -569,
   |47, 45, 32, -560,
   |47, 45, 71, -577,
   |47, 45, 78, -572,
   |47, 45, 89, -572,
   |47, 71, 12, -216,
   |47, 71, 25, -211,
   |47, 71, 30, -226,
   |47, 71, 32, -230,
   |47, 71, 45, -244,
   |47, 71, 78, -234,
   |47, 71, 89, -230,
   |47, 78, 12, -468,
   |47, 78, 25, -454,
   |47, 78, 30, -466,
   |47, 78, 32, -468,
   |47, 78, 45, -466,
   |47, 78, 71, -462,
   |47, 78, 89, -471,
   |47, 89, 12, -691,
   |47, 89, 25, -685,
   |47, 89, 30, -693,
   |47, 89, 32, -681,
   |47, 89, 45, -687,
   |47, 89, 71, -678,
   |47, 89, 78, -692,
   |47, 47, 47, 0,
   |48, 34, 58, -607,
   |48, 34, 66, -618,
   |48, 34, 77, -617,
   |48, 58, 34, -365,
   |48, 58, 66, -373,
   |48, 58, 77, -359,
   |48, 66, 34, -819,
   |48, 66, 58, -816,
   |48, 66, 77, -817,
   |48, 77, 34, -761,
   |48, 77, 58, -744,
   |48, 77, 66, -760,
   |48, 48, 48, 0,
   |49, 22, 1, -539,
   |49, 22, 46, -544,
   |49, 22, 60, -544,
   |49, 46, 1, -463,
   |49, 46, 22, -464,
   |49, 46, 60, -460,
   |49, 60, 1, -558,
   |49, 60, 22, -573,
   |49, 60, 46, -570,
   |49, 49, 49, 0,
   |50, 5, 29, -383,
   |50, 5, 38, -390,
   |50, 29, 5, -692,
   |50, 29, 38, -690,
   |50, 38, 5, -655,
   |50, 38, 29, -645,
   |50, 50, 50, 0,
   |51, 18, 40, -390,
   |51, 18, 75, -385,
   |51, 18, 79, -382,
   |51, 18, 86, -387,
   |51, 40, 18, -688,
   |51, 40, 75, -684,
   |51, 40, 79, -679,
   |51, 40, 86, -685,
   |51, 75, 18, -1048,
   |51, 75, 40, -1049,
   |51, 75, 79, -1050,
   |51, 75, 86, -1052,
   |51, 79, 18, -614,
   |51, 79, 40, -614,
   |51, 79, 75, -619,
   |51, 79, 86, -621,
   |51, 86, 18, -906,
   |51, 86, 40, -906,
   |51, 86, 75, -909,
   |51, 86, 79, -907,
   |51, 51, 51, 0,
   |52, 9, 37, -664,
   |52, 9, 39, -662,
   |52, 9, 54, -676,
   |52, 9, 71, -667,
   |52, 9, 84, -672,
   |52, 37, 9, -811,
   |52, 37, 39, -796,
   |52, 37, 54, -815,
   |52, 37, 71, -823,
   |52, 37, 84, -799,
   |52, 39, 9, -313,
   |52, 39, 37, -299,
   |52, 39, 54, -313,
   |52, 39, 71, -310,
   |52, 39, 84, -313,
   |52, 54, 9, -381,
   |52, 54, 37, -372,
   |52, 54, 39, -367,
   |52, 54, 71, -375,
   |52, 54, 84, -373,
   |52, 71, 9, -976,
   |52, 71, 37, -985,
   |52, 71, 39, -968,
   |52, 71, 54, -980,
   |52, 71, 84, -960,
   |52, 84, 9, -557,
   |52, 84, 37, -536,
   |52, 84, 39, -547,
   |52, 84, 54, -553,
   |52, 84, 71, -535,
   |52, 52, 52, 0,
   |53, 20, 35, -614,
   |53, 20, 41, -610,
   |53, 20, 58, -613,
   |53, 20, 77, -617,
   |53, 35, 20, -344,
   |53, 35, 41, -323,
   |53, 35, 58, -318,
   |53, 35, 77, -351,
   |53, 41, 20, -747,
   |53, 41, 35, -730,
   |53, 41, 58, -759,
   |53, 41, 77, -726,
   |53, 58, 20, -646,
   |53, 58, 35, -621,
   |53, 58, 41, -655,
   |53, 58, 77, -629,
   |53, 77, 20, -411,
   |53, 77, 35, -415,
   |53, 77, 41, -383,
   |53, 77, 58, -390,
   |53, 53, 53, 0,
   |54, 9, 25, -365,
   |54, 9, 33, -352,
   |54, 9, 52, -343,
   |54, 9, 69, -377,
   |54, 9, 84, -368,
   |54, 9, 89, -364,
   |54, 25, 9, -796,
   |54, 25, 33, -804,
   |54, 25, 52, -779,
   |54, 25, 69, -794,
   |54, 25, 84, -771,
   |54, 25, 89, -803,
   |54, 33, 9, -1006,
   |54, 33, 25, -1027,
   |54, 33, 52, -1015,
   |54, 33, 69, -1007,
   |54, 33, 84, -988,
   |54, 33, 89, -1019,
   |54, 52, 9, -347,
   |54, 52, 25, -353,
   |54, 52, 33, -366,
   |54, 52, 69, -348,
   |54, 52, 84, -372,
   |54, 52, 89, -363,
   |54, 69, 9, -1240,
   |54, 69, 25, -1226,
   |54, 69, 33, -1216,
   |54, 69, 52, -1207,
   |54, 69, 84, -1231,
   |54, 69, 89, -1222,
   |54, 84, 9, -540,
   |54, 84, 25, -511,
   |54, 84, 33, -506,
   |54, 84, 52, -539,
   |54, 84, 69, -539,
   |54, 84, 89, -528,
   |54, 89, 9, -567,
   |54, 89, 25, -575,
   |54, 89, 33, -568,
   |54, 89, 52, -561,
   |54, 89, 69, -562,
   |54, 89, 84, -559,
   |54, 54, 54, 0,
   |55, 31, 64, -847,
   |55, 64, 31, -486,
   |55, 55, 55, 0,
   |56, 64, 79, -850,
   |56, 79, 64, -232,
   |56, 56, 56, 0,
   |57, 39, 61, -206,
   |57, 39, 81, -223,
   |57, 61, 39, -296,
   |57, 61, 81, -336,
   |57, 81, 39, -970,
   |57, 81, 61, -993,
   |57, 57, 57, 0,
   |58, 48, 53, -371,
   |58, 48, 66, -363,
   |58, 53, 48, -648,
   |58, 53, 66, -654,
   |58, 66, 48, -697,
   |58, 66, 53, -711,
   |58, 58, 58, 0,
   |59, 7, 26, -773,
   |59, 7, 36, -776,
   |59, 7, 68, -779,
   |59, 7, 74, -759,
   |59, 7, 81, -765,
   |59, 26, 7, -399,
   |59, 26, 36, -386,
   |59, 26, 68, -391,
   |59, 26, 74, -377,
   |59, 26, 81, -371,
   |59, 36, 7, -632,
   |59, 36, 26, -616,
   |59, 36, 68, -634,
   |59, 36, 74, -618,
   |59, 36, 81, -627,
   |59, 68, 7, -598,
   |59, 68, 26, -584,
   |59, 68, 36, -598,
   |59, 68, 74, -585,
   |59, 68, 81, -592,
   |59, 74, 7, -184,
   |59, 74, 26, -177,
   |59, 74, 36, -189,
   |59, 74, 68, -192,
   |59, 74, 81, -204,
   |59, 81, 7, -714,
   |59, 81, 26, -694,
   |59, 81, 36, -721,
   |59, 81, 68, -722,
   |59, 81, 74, -728,
   |59, 59, 59, 0,
   |60, 22, 25, -394,
   |60, 22, 37, -380,
   |60, 22, 49, -400,
   |60, 25, 22, -828,
   |60, 25, 37, -836,
   |60, 25, 49, -822,
   |60, 37, 22, -336,
   |60, 37, 25, -359,
   |60, 37, 49, -351,
   |60, 49, 22, -569,
   |60, 49, 25, -556,
   |60, 49, 37, -563,
   |60, 60, 60, 0,
   |61, 39, 57, -541,
   |61, 39, 69, -495,
   |61, 39, 79, -528,
   |61, 39, 81, -520,
   |61, 39, 84, -529,
   |61, 57, 39, -341,
   |61, 57, 69, -297,
   |61, 57, 79, -329,
   |61, 57, 81, -321,
   |61, 57, 84, -328,
   |61, 69, 39, -954,
   |61, 69, 57, -956,
   |61, 69, 79, -986,
   |61, 69, 81, -993,
   |61, 69, 84, -980,
   |61, 79, 39, -700,
   |61, 79, 57, -701,
   |61, 79, 69, -700,
   |61, 79, 81, -711,
   |61, 79, 84, -673,
   |61, 81, 39, -845,
   |61, 81, 57, -846,
   |61, 81, 69, -859,
   |61, 81, 79, -864,
   |61, 81, 84, -833,
   |61, 84, 39, -438,
   |61, 84, 57, -437,
   |61, 84, 69, -430,
   |61, 84, 79, -410,
   |61, 84, 81, -417,
   |61, 61, 61, 0,
   |62, 24, 34, -297,
   |62, 24, 43, -310,
   |62, 24, 65, -299,
   |62, 34, 24, -363,
   |62, 34, 43, -355,
   |62, 34, 65, -333,
   |62, 43, 24, -573,
   |62, 43, 34, -552,
   |62, 43, 65, -569,
   |62, 65, 24, -304,
   |62, 65, 34, -271,
   |62, 65, 43, -311,
   |62, 62, 62, 0,
   |63, 67, 69, -971,
   |63, 67, 74, -979,
   |63, 67, 80, -978,
   |63, 67, 87, -981,
   |63, 69, 67, -434,
   |63, 69, 74, -437,
   |63, 69, 80, -442,
   |63, 69, 87, -437,
   |63, 74, 67, -560,
   |63, 74, 69, -556,
   |63, 74, 80, -561,
   |63, 74, 87, -561,
   |63, 80, 67, -546,
   |63, 80, 69, -547,
   |63, 80, 74, -547,
   |63, 80, 87, -548,
   |63, 87, 67, -1056,
   |63, 87, 69, -1049,
   |63, 87, 74, -1055,
   |63, 87, 80, -1055,
   |63, 63, 63, 0,
   |64, 55, 56, -511,
   |64, 55, 70, -512,
   |64, 56, 55, -858,
   |64, 56, 70, -860,
   |64, 70, 55, -1204,
   |64, 70, 56, -1206,
   |64, 64, 64, 0,
   |65, 7, 24, -489,
   |65, 7, 34, -473,
   |65, 7, 43, -497,
   |65, 7, 62, -473,
   |65, 7, 66, -478,
   |65, 7, 69, -493,
   |65, 24, 7, -397,
   |65, 24, 34, -406,
   |65, 24, 43, -405,
   |65, 24, 62, -406,
   |65, 24, 66, -399,
   |65, 24, 69, -404,
   |65, 34, 7, -615,
   |65, 34, 24, -640,
   |65, 34, 43, -630,
   |65, 34, 62, -644,
   |65, 34, 66, -637,
   |65, 34, 69, -632,
   |65, 43, 7, -493,
   |65, 43, 24, -493,
   |65, 43, 34, -484,
   |65, 43, 62, -483,
   |65, 43, 66, -488,
   |65, 43, 69, -497,
   |65, 62, 7, -289,
   |65, 62, 24, -313,
   |65, 62, 34, -317,
   |65, 62, 43, -302,
   |65, 62, 66, -309,
   |65, 62, 69, -304,
   |65, 66, 7, -359,
   |65, 66, 24, -371,
   |65, 66, 34, -375,
   |65, 66, 43, -372,
   |65, 66, 62, -374,
   |65, 66, 69, -377,
   |65, 69, 7, -857,
   |65, 69, 24, -859,
   |65, 69, 34, -853,
   |65, 69, 43, -864,
   |65, 69, 62, -852,
   |65, 69, 66, -860,
   |65, 90, 7, -510,
   |65, 90, 24, -523,
   |65, 90, 34, -519,
   |65, 90, 43, -516,
   |65, 90, 62, -520,
   |65, 90, 66, -507,
   |65, 90, 69, -513,
   |65, 65, 65, 0,
   |66, 48, 58, -821,
   |66, 48, 65, -794,
   |66, 48, 76, -795,
   |66, 58, 48, -712,
   |66, 58, 65, -685,
   |66, 58, 76, -687,
   |66, 65, 48, -354,
   |66, 65, 58, -354,
   |66, 65, 76, -363,
   |66, 76, 48, -314,
   |66, 76, 58, -314,
   |66, 76, 65, -322,
   |66, 66, 66, 0,
   |67, 13, 30, -620,
   |67, 13, 63, -616,
   |67, 13, 79, -597,
   |67, 13, 80, -613,
   |67, 13, 81, -594,
   |67, 13, 87, -597,
   |67, 30, 13, -1275,
   |67, 30, 63, -1280,
   |67, 30, 79, -1269,
   |67, 30, 80, -1276,
   |67, 30, 81, -1267,
   |67, 30, 87, -1254,
   |67, 63, 13, -973,
   |67, 63, 30, -981,
   |67, 63, 79, -970,
   |67, 63, 80, -980,
   |67, 63, 81, -971,
   |67, 63, 87, -963,
   |67, 79, 13, -636,
   |67, 79, 30, -652,
   |67, 79, 63, -653,
   |67, 79, 80, -650,
   |67, 79, 81, -664,
   |67, 79, 87, -647,
   |67, 80, 13, -681,
   |67, 80, 30, -689,
   |67, 80, 63, -692,
   |67, 80, 79, -679,
   |67, 80, 81, -681,
   |67, 80, 87, -684,
   |67, 81, 13, -203,
   |67, 81, 30, -221,
   |67, 81, 63, -224,
   |67, 81, 79, -234,
   |67, 81, 80, -222,
   |67, 81, 87, -221,
   |67, 87, 13, -262,
   |67, 87, 30, -264,
   |67, 87, 63, -272,
   |67, 87, 79, -273,
   |67, 87, 80, -281,
   |67, 87, 81, -277,
   |67, 67, 67, 0,
   |68, 26, 36, -704,
   |68, 26, 59, -719,
   |68, 26, 69, -720,
   |68, 26, 80, -718,
   |68, 36, 26, -328,
   |68, 36, 59, -333,
   |68, 36, 69, -320,
   |68, 36, 80, -321,
   |68, 59, 26, -598,
   |68, 59, 36, -588,
   |68, 59, 69, -597,
   |68, 59, 80, -597,
   |68, 69, 26, -786,
   |68, 69, 36, -762,
   |68, 69, 59, -784,
   |68, 69, 80, -787,
   |68, 80, 26, -546,
   |68, 80, 36, -525,
   |68, 80, 59, -547,
   |68, 80, 69, -549,
   |68, 68, 68, 0,
   |69, 36, 54, -963,
   |69, 36, 61, -963,
   |69, 36, 63, -955,
   |69, 36, 65, -971,
   |69, 36, 68, -975,
   |69, 36, 80, -974,
   |69, 36, 87, -973,
   |69, 54, 36, -1228,
   |69, 54, 61, -1240,
   |69, 54, 63, -1238,
   |69, 54, 65, -1222,
   |69, 54, 68, -1226,
   |69, 54, 80, -1234,
   |69, 54, 87, -1234,
   |69, 61, 36, -987,
   |69, 61, 54, -1000,
   |69, 61, 63, -999,
   |69, 61, 65, -977,
   |69, 61, 68, -985,
   |69, 61, 80, -992,
   |69, 61, 87, -991,
   |69, 63, 36, -424,
   |69, 63, 54, -443,
   |69, 63, 61, -444,
   |69, 63, 65, -414,
   |69, 63, 68, -421,
   |69, 63, 80, -430,
   |69, 63, 87, -429,
   |69, 65, 36, -860,
   |69, 65, 54, -846,
   |69, 65, 61, -842,
   |69, 65, 63, -834,
   |69, 65, 68, -862,
   |69, 65, 80, -860,
   |69, 65, 87, -861,
   |69, 68, 36, -787,
   |69, 68, 54, -774,
   |69, 68, 61, -772,
   |69, 68, 63, -763,
   |69, 68, 65, -785,
   |69, 68, 80, -786,
   |69, 68, 87, -786,
   |69, 80, 36, -346,
   |69, 80, 54, -341,
   |69, 80, 61, -339,
   |69, 80, 63, -333,
   |69, 80, 65, -343,
   |69, 80, 68, -346,
   |69, 80, 87, -348,
   |69, 87, 36, -956,
   |69, 87, 54, -951,
   |69, 87, 61, -949,
   |69, 87, 63, -943,
   |69, 87, 65, -954,
   |69, 87, 68, -956,
   |69, 87, 80, -958,
   |69, 69, 69, 0,
   |70, 64, 74, -1206,
   |70, 64, 81, -1203,
   |70, 64, 87, -1193,
   |70, 74, 64, -698,
   |70, 74, 81, -693,
   |70, 74, 87, -690,
   |70, 81, 64, -349,
   |70, 81, 74, -347,
   |70, 81, 87, -345,
   |70, 87, 64, -267,
   |70, 87, 74, -271,
   |70, 87, 81, -273,
   |70, 70, 70, 0,
   |71, 12, 25, -589,
   |71, 12, 30, -586,
   |71, 12, 37, -582,
   |71, 12, 39, -575,
   |71, 12, 47, -589,
   |71, 12, 52, -578,
   |71, 12, 89, -588,
   |71, 25, 12, -456,
   |71, 25, 30, -453,
   |71, 25, 37, -440,
   |71, 25, 39, -444,
   |71, 25, 47, -458,
   |71, 25, 52, -445,
   |71, 25, 89, -451,
   |71, 30, 12, -1616,
   |71, 30, 25, -1615,
   |71, 30, 37, -1614,
   |71, 30, 39, -1617,
   |71, 30, 47, -1613,
   |71, 30, 52, -1618,
   |71, 30, 89, -1619,
   |71, 37, 12, -502,
   |71, 37, 25, -492,
   |71, 37, 30, -503,
   |71, 37, 39, -501,
   |71, 37, 47, -493,
   |71, 37, 52, -505,
   |71, 37, 89, -507,
   |71, 39, 12, -1065,
   |71, 39, 25, -1067,
   |71, 39, 30, -1077,
   |71, 39, 37, -1072,
   |71, 39, 47, -1061,
   |71, 39, 52, -1081,
   |71, 39, 89, -1074,
   |71, 47, 12, -245,
   |71, 47, 25, -246,
   |71, 47, 30, -239,
   |71, 47, 37, -229,
   |71, 47, 39, -227,
   |71, 47, 52, -228,
   |71, 47, 89, -238,
   |71, 52, 12, -974,
   |71, 52, 25, -973,
   |71, 52, 30, -984,
   |71, 52, 37, -981,
   |71, 52, 39, -986,
   |71, 52, 47, -968,
   |71, 52, 89, -982,
   |71, 89, 12, -741,
   |71, 89, 25, -737,
   |71, 89, 30, -743,
   |71, 89, 37, -741,
   |71, 89, 39, -737,
   |71, 89, 47, -735,
   |71, 89, 52, -740,
   |71, 71, 71, 0,
   |72, 72, 72, 0,
   |73, 4, 10, -488,
   |73, 4, 15, -491,
   |73, 4, 18, -485,
   |73, 4, 27, -483,
   |73, 4, 40, -492,
   |73, 10, 4, -755,
   |73, 10, 15, -751,
   |73, 10, 18, -760,
   |73, 10, 27, -733,
   |73, 10, 40, -759,
   |73, 15, 4, -1002,
   |73, 15, 10, -995,
   |73, 15, 18, -992,
   |73, 15, 27, -997,
   |73, 15, 40, -998,
   |73, 18, 4, -283,
   |73, 18, 10, -291,
   |73, 18, 15, -279,
   |73, 18, 27, -258,
   |73, 18, 40, -288,
   |73, 27, 4, -272,
   |73, 27, 10, -254,
   |73, 27, 15, -275,
   |73, 27, 18, -249,
   |73, 27, 40, -263,
   |73, 40, 4, -503,
   |73, 40, 10, -504,
   |73, 40, 15, -499,
   |73, 40, 18, -502,
   |73, 40, 27, -485,
   |73, 73, 73, 0,
   |74, 36, 59, -673,
   |74, 36, 63, -641,
   |74, 36, 70, -677,
   |74, 59, 36, -198,
   |74, 59, 63, -188,
   |74, 59, 70, -184,
   |74, 63, 36, -523,
   |74, 63, 59, -544,
   |74, 63, 70, -529,
   |74, 70, 36, -696,
   |74, 70, 59, -678,
   |74, 70, 63, -666,
   |74, 74, 74, 0,
   |75, 3, 23, -261,
   |75, 3, 51, -255,
   |75, 23, 3, -253,
   |75, 23, 51, -259,
   |75, 51, 3, -1036,
   |75, 51, 23, -1048,
   |75, 75, 75, 0,
   |76, 24, 41, -749,
   |76, 24, 66, -759,
   |76, 41, 24, -938,
   |76, 41, 66, -941,
   |76, 66, 24, -341,
   |76, 66, 41, -334,
   |76, 90, 24, -924,
   |76, 90, 41, -913,
   |76, 90, 66, -924,
   |76, 76, 76, 0,
   |77, 20, 34, -532,
   |77, 20, 41, -536,
   |77, 20, 48, -540,
   |77, 20, 53, -530,
   |77, 34, 20, -555,
   |77, 34, 41, -558,
   |77, 34, 48, -561,
   |77, 34, 53, -558,
   |77, 41, 20, -1079,
   |77, 41, 34, -1078,
   |77, 41, 48, -1084,
   |77, 41, 53, -1085,
   |77, 48, 20, -763,
   |77, 48, 34, -760,
   |77, 48, 41, -763,
   |77, 48, 53, -760,
   |77, 53, 20, -405,
   |77, 53, 34, -409,
   |77, 53, 41, -417,
   |77, 53, 48, -413,
   |77, 77, 77, 0,
   |78, 12, 32, -407,
   |78, 12, 42, -409,
   |78, 12, 47, -414,
   |78, 32, 12, -580,
   |78, 32, 42, -570,
   |78, 32, 47, -579,
   |78, 42, 12, -289,
   |78, 42, 32, -277,
   |78, 42, 47, -272,
   |78, 47, 12, -468,
   |78, 47, 32, -461,
   |78, 47, 42, -446,
   |78, 78, 78, 0,
   |79, 40, 51, -738,
   |79, 40, 56, -733,
   |79, 40, 61, -728,
   |79, 40, 67, -705,
   |79, 51, 40, -616,
   |79, 51, 56, -607,
   |79, 51, 61, -620,
   |79, 51, 67, -593,
   |79, 56, 40, -231,
   |79, 56, 51, -228,
   |79, 56, 61, -222,
   |79, 56, 67, -220,
   |79, 61, 40, -696,
   |79, 61, 51, -710,
   |79, 61, 56, -692,
   |79, 61, 67, -698,
   |79, 67, 40, -625,
   |79, 67, 51, -635,
   |79, 67, 56, -641,
   |79, 67, 61, -649,
   |79, 79, 79, 0,
   |80, 26, 41, -456,
   |80, 26, 63, -466,
   |80, 26, 67, -441,
   |80, 26, 68, -463,
   |80, 26, 69, -472,
   |80, 26, 87, -447,
   |80, 41, 26, -686,
   |80, 41, 63, -705,
   |80, 41, 67, -694,
   |80, 41, 68, -671,
   |80, 41, 69, -701,
   |80, 41, 87, -687,
   |80, 63, 26, -537,
   |80, 63, 41, -546,
   |80, 63, 67, -528,
   |80, 63, 68, -506,
   |80, 63, 69, -544,
   |80, 63, 87, -521,
   |80, 67, 26, -657,
   |80, 67, 41, -679,
   |80, 67, 63, -673,
   |80, 67, 68, -684,
   |80, 67, 69, -655,
   |80, 67, 87, -693,
   |80, 68, 26, -534,
   |80, 68, 41, -511,
   |80, 68, 63, -507,
   |80, 68, 67, -540,
   |80, 68, 69, -519,
   |80, 68, 87, -545,
   |80, 69, 26, -342,
   |80, 69, 41, -341,
   |80, 69, 63, -343,
   |80, 69, 67, -309,
   |80, 69, 68, -317,
   |80, 69, 87, -302,
   |80, 87, 26, -633,
   |80, 87, 41, -642,
   |80, 87, 63, -635,
   |80, 87, 67, -663,
   |80, 87, 68, -659,
   |80, 87, 69, -618,
   |80, 90, 26, -874,
   |80, 90, 41, -873,
   |80, 90, 63, -863,
   |80, 90, 67, -869,
   |80, 90, 68, -880,
   |80, 90, 69, -879,
   |80, 90, 87, -873,
   |80, 80, 80, 0,
   |81, 13, 30, -764,
   |81, 13, 36, -744,
   |81, 13, 39, -753,
   |81, 13, 57, -754,
   |81, 13, 59, -752,
   |81, 13, 61, -757,
   |81, 13, 67, -767,
   |81, 13, 70, -741,
   |81, 30, 13, -1274,
   |81, 30, 36, -1259,
   |81, 30, 39, -1274,
   |81, 30, 57, -1276,
   |81, 30, 59, -1273,
   |81, 30, 61, -1278,
   |81, 30, 67, -1267,
   |81, 30, 70, -1245,
   |81, 36, 13, -738,
   |81, 36, 30, -742,
   |81, 36, 39, -738,
   |81, 36, 57, -740,
   |81, 36, 59, -759,
   |81, 36, 61, -742,
   |81, 36, 67, -745,
   |81, 36, 70, -761,
   |81, 39, 13, -1122,
   |81, 39, 30, -1133,
   |81, 39, 36, -1113,
   |81, 39, 57, -1139,
   |81, 39, 59, -1126,
   |81, 39, 61, -1137,
   |81, 39, 67, -1110,
   |81, 39, 70, -1108,
   |81, 57, 13, -983,
   |81, 57, 30, -994,
   |81, 57, 36, -975,
   |81, 57, 39, -999,
   |81, 57, 59, -988,
   |81, 57, 61, -998,
   |81, 57, 67, -971,
   |81, 57, 70, -967,
   |81, 59, 13, -713,
   |81, 59, 30, -723,
   |81, 59, 36, -725,
   |81, 59, 39, -717,
   |81, 59, 57, -719,
   |81, 59, 61, -722,
   |81, 59, 67, -709,
   |81, 59, 70, -717,
   |81, 61, 13, -853,
   |81, 61, 30, -864,
   |81, 61, 36, -845,
   |81, 61, 39, -865,
   |81, 61, 57, -866,
   |81, 61, 59, -859,
   |81, 61, 67, -842,
   |81, 61, 70, -834,
   |81, 67, 13, -232,
   |81, 67, 30, -221,
   |81, 67, 36, -216,
   |81, 67, 39, -206,
   |81, 67, 57, -207,
   |81, 67, 59, -214,
   |81, 67, 61, -210,
   |81, 67, 70, -218,
   |81, 70, 13, -325,
   |81, 70, 30, -318,
   |81, 70, 36, -351,
   |81, 70, 39, -322,
   |81, 70, 57, -322,
   |81, 70, 59, -340,
   |81, 70, 61, -321,
   |81, 70, 67, -336,
   |81, 81, 81, 0,
   |82, 15, 17, -551,
   |82, 15, 29, -565,
   |82, 15, 45, -559,
   |82, 17, 15, -845,
   |82, 17, 29, -868,
   |82, 17, 45, -868,
   |82, 29, 15, -503,
   |82, 29, 17, -512,
   |82, 29, 45, -512,
   |82, 45, 15, -460,
   |82, 45, 17, -476,
   |82, 45, 29, -476,
   |82, 82, 82, 0,
   |83, 11, 34, -216,
   |83, 34, 11, -392,
   |83, 83, 83, 0,
   |84, 9, 13, -549,
   |84, 9, 33, -546,
   |84, 9, 52, -539,
   |84, 9, 54, -547,
   |84, 9, 61, -547,
   |84, 13, 9, -1216,
   |84, 13, 33, -1210,
   |84, 13, 52, -1203,
   |84, 13, 54, -1212,
   |84, 13, 61, -1210,
   |84, 33, 9, -1513,
   |84, 33, 13, -1509,
   |84, 33, 52, -1515,
   |84, 33, 54, -1516,
   |84, 33, 61, -1513,
   |84, 52, 9, -551,
   |84, 52, 13, -548,
   |84, 52, 33, -560,
   |84, 52, 54, -559,
   |84, 52, 61, -552,
   |84, 54, 9, -546,
   |84, 54, 13, -544,
   |84, 54, 33, -549,
   |84, 54, 52, -546,
   |84, 54, 61, -545,
   |84, 61, 9, -447,
   |84, 61, 13, -443,
   |84, 61, 33, -446,
   |84, 61, 52, -441,
   |84, 61, 54, -446,
   |84, 84, 84, 0,
   |85, 4, 15, -258,
   |85, 4, 27, -271,
   |85, 15, 4, -502,
   |85, 15, 27, -490,
   |85, 27, 4, -457,
   |85, 27, 15, -432,
   |85, 85, 85, 0,
   |86, 3, 10, -461,
   |86, 3, 23, -479,
   |86, 3, 40, -449,
   |86, 3, 51, -460,
   |86, 10, 3, -326,
   |86, 10, 23, -325,
   |86, 10, 40, -343,
   |86, 10, 51, -340,
   |86, 23, 3, -220,
   |86, 23, 10, -200,
   |86, 23, 40, -191,
   |86, 23, 51, -205,
   |86, 40, 3, -586,
   |86, 40, 10, -614,
   |86, 40, 23, -587,
   |86, 40, 51, -612,
   |86, 51, 3, -890,
   |86, 51, 10, -904,
   |86, 51, 23, -894,
   |86, 51, 40, -905,
   |86, 86, 86, 0,
   |87, 63, 67, -1049,
   |87, 63, 69, -1055,
   |87, 63, 70, -1036,
   |87, 63, 80, -1055,
   |87, 67, 63, -282,
   |87, 67, 69, -277,
   |87, 67, 70, -271,
   |87, 67, 80, -277,
   |87, 69, 63, -957,
   |87, 69, 67, -945,
   |87, 69, 70, -934,
   |87, 69, 80, -958,
   |87, 70, 63, -260,
   |87, 70, 67, -261,
   |87, 70, 69, -257,
   |87, 70, 80, -258,
   |87, 80, 63, -663,
   |87, 80, 67, -650,
   |87, 80, 69, -664,
   |87, 80, 70, -641,
   |87, 87, 87, 0,
   |88, 19, 31, -174,
   |88, 31, 19, -306,
   |88, 88, 88, 0,
   |89, 12, 42, -496,
   |89, 12, 47, -500,
   |89, 12, 54, -481,
   |89, 12, 71, -498,
   |89, 42, 12, -286,
   |89, 42, 47, -283,
   |89, 42, 54, -254,
   |89, 42, 71, -283,
   |89, 47, 12, -692,
   |89, 47, 42, -686,
   |89, 47, 54, -681,
   |89, 47, 71, -694,
   |89, 54, 12, -559,
   |89, 54, 42, -542,
   |89, 54, 47, -567,
   |89, 54, 71, -568,
   |89, 71, 12, -739,
   |89, 71, 42, -734,
   |89, 71, 47, -743,
   |89, 71, 54, -731,
   |89, 89, 89, 0,
   |];

